;; sequence(s): A208375
;; terms: 10 100 240 420 640 900 1200 1540 1920 2340 2800 3300 3840 4420 5040 5700 6400 7140 7920 8740
;; small program: loop2(if x <= 0 then 1 else (2 * ((2 + (2 + y)) * x)), 1, 2, x, x)
;; fast program: 2 * ((1 + (2 + 2)) * (if x <= 0 then 1 else (2 * ((2 + (2 + x)) * x))))
(set-logic UFNIA)
(declare-fun f0 (Int Int) Int)
(declare-fun g0 () Int)
(declare-fun h0 () Int)
(declare-fun i0 (Int) Int)
(declare-fun j0 (Int) Int)
(declare-fun u0 (Int Int Int) Int)
(declare-fun v0 (Int Int Int) Int)
(declare-fun w0 (Int) Int)
(declare-fun small (Int) Int)
(declare-fun fast (Int) Int)
(assert (forall ((x Int) (y Int)) (= (f0 x y) (ite (<= x 0) 1 (* 2 (* (+ 2 (+ 2 y)) x))))))
(assert (= g0 1))
(assert (= h0 2))
(assert (forall ((x Int)) (= (i0 x) x)))
(assert (forall ((x Int)) (= (j0 x) x)))
(assert (forall ((x Int) (y Int) (z Int)) (= (u0 x y z) (ite (<= x 0) y (f0 (u0 (- x 1) y z) (v0 (- x 1) y z))))))
(assert (forall ((x Int) (y Int) (z Int)) (= (v0 x y z) (ite (<= x 0) z g0))))
(assert (forall ((x Int)) (= (w0 x) (u0 h0 (i0 x) (j0 x)))))
(assert (forall ((x Int)) (= (small x) (w0 x))))
(assert (forall ((x Int)) (= (fast x) (* 2 (* (+ 1 (+ 2 2)) (ite (<= x 0) 1 (* 2 (* (+ 2 (+ 2 x)) x))))))))
(assert (exists ((c Int)) (and (>= c 0) (not (= (small c) (fast c))))))
(check-sat)
